presolving:
(round 1, fast)       33 del vars, 453 del conss, 0 add conss, 13893 chg bounds, 0 chg sides, 13860 chg coeffs, 0 upgd conss, 0 impls, 0 clqs
   (0.1s) running MILP presolver
   (0.2s) MILP presolver found nothing
(round 2, exhaustive) 33 del vars, 453 del conss, 0 add conss, 13893 chg bounds, 0 chg sides, 13860 chg coeffs, 13893 upgd conss, 0 impls, 0 clqs
   (0.3s) probing: 51/420 (12.1%) - 0 fixings, 0 aggregations, 0 implications, 0 bound changes
   (0.3s) probing aborted: 50/50 successive totally useless probings
   (0.4s) symmetry computation started: requiring (bin +, int -, cont +), (fixed: bin -, int +, cont -)
   (0.4s) no symmetry present
presolving (3 rounds: 3 fast, 2 medium, 2 exhaustive):
 33 deleted vars, 453 deleted constraints, 0 added constraints, 13893 tightened bounds, 0 added holes, 0 changed sides, 13860 changed coefficients
 13860 implications, 0 cliques
presolved problem has 14280 variables (420 bin, 0 int, 0 impl, 13860 cont) and 13926 constraints
  13860 constraints of type <varbound>
     33 constraints of type <linear>
     33 constraints of type <logicor>
Presolving Time: 0.37

 time | node  | left  |LP iter|LP it/n|mem/heur|mdpt |vars |cons |rows |cuts |sepa|confs|strbr|  dualbound   | primalbound  |  gap   | compl. 
p 0.5s|     1 |     0 |    33 |     - |   locks|   0 |  14k|  13k|  13k|   0 |  0 |   0 |   0 | 0.000000e+00 | 5.346690e+05 |    Inf | unknown
i 0.5s|     1 |     0 |    33 |     - |  oneopt|   0 |  14k|  13k|  13k|   0 |  0 |   0 |   0 | 0.000000e+00 | 4.201200e+04 |    Inf | unknown
  1.8s|     1 |     0 |  6304 |     - |   113M |   0 |  14k|  13k|  13k|   0 |  0 |   0 |   0 | 1.534841e+04 | 4.201200e+04 | 173.72%| unknown
  2.3s|     1 |     0 |  6898 |     - |   118M |   0 |  14k|  13k|  13k|   1 |  1 |   0 |   0 | 1.536967e+04 | 4.201200e+04 | 173.34%| unknown
  2.9s|     1 |     0 |  7373 |     - |   119M |   0 |  14k|  13k|  13k|   2 |  2 |   0 |   0 | 1.538389e+04 | 4.201200e+04 | 173.09%| unknown
  3.5s|     1 |     0 |  8018 |     - |   121M |   0 |  14k|  13k|  13k|   3 |  3 |   0 |   0 | 1.539786e+04 | 4.201200e+04 | 172.84%| unknown
  4.1s|     1 |     0 |  8387 |     - |   123M |   0 |  14k|  13k|  13k|   4 |  4 |   0 |   0 | 1.540480e+04 | 4.201200e+04 | 172.72%| unknown
r 4.9s|     1 |     0 | 11914 |     - |intshift|   0 |  14k|  13k|  13k|   4 |  6 |   0 |   0 | 1.540480e+04 | 4.134900e+04 | 168.42%| unknown
L 9.4s|     1 |     0 | 22165 |     - |    rens|   0 |  14k|  13k|  13k|   4 |  6 |   0 |   0 | 1.540480e+04 | 1.659500e+04 |   7.73%| unknown
 10.1s|     1 |     0 | 22165 |     - |   136M |   0 |  14k|  13k|  13k|   4 |  6 |   0 |   0 | 1.540480e+04 | 1.659500e+04 |   7.73%| unknown
 10.1s|     1 |     0 | 22165 |     - |   136M |   0 |  14k|  13k|  13k|   4 |  6 |   0 |   0 | 1.540480e+04 | 1.659500e+04 |   7.73%| unknown
 10.7s|     1 |     0 | 22616 |     - |   136M |   0 |  14k|  13k|  13k|   5 |  7 |   0 |   0 | 1.541743e+04 | 1.659500e+04 |   7.64%| unknown
 10.7s|     1 |     0 | 22616 |     - |   136M |   0 |  14k|  13k|  13k|   5 |  7 |   0 |   0 | 1.541743e+04 | 1.659500e+04 |   7.64%| unknown
 10.7s|     1 |     0 | 22616 |     - |   136M |   0 |  14k|  13k|  13k|   5 |  8 |   0 |   0 | 1.541743e+04 | 1.659500e+04 |   7.64%| unknown
 11.2s|     1 |     0 | 23075 |     - |   138M |   0 |  14k|  13k|  13k|   6 |  9 |   0 |   0 | 1.542333e+04 | 1.659500e+04 |   7.60%| unknown
 time | node  | left  |LP iter|LP it/n|mem/heur|mdpt |vars |cons |rows |cuts |sepa|confs|strbr|  dualbound   | primalbound  |  gap   | compl. 
 18.2s|     1 |     2 | 23075 |     - |   139M |   0 |  14k|  13k|  13k|   6 | 10 |   0 |  22 | 1.544717e+04 | 1.659500e+04 |   7.43%| unknown
 75.5s|   100 |    69 | 82522 | 740.0 |   177M |  14 |  14k|  13k|  13k|  31 |  2 |   0 | 237 | 1.584080e+04 | 1.659500e+04 |   4.76%|  24.82%
 95.6s|   200 |    89 |130358 | 608.5 |   192M |  20 |  14k|  13k|  13k|  52 |  2 |   0 | 300 | 1.601890e+04 | 1.659500e+04 |   3.60%|  41.33%
*96.4s|   204 |    77 |130980 | 599.6 |strongbr|  20 |  14k|  13k|  13k|  52 |  2 |   0 | 301 | 1.601890e+04 | 1.652400e+04 |   3.15%|  44.98%
d 108s|   261 |    66 |153753 | 555.7 |farkasdi|  20 |  14k|  13k|  13k|   0 |  2 |   0 | 359 | 1.607060e+04 | 1.647200e+04 |   2.50%|  66.20%
  112s|   300 |    49 |162532 | 512.6 |   199M |  20 |  14k|  13k|  13k|  56 |  0 |   0 | 375 | 1.617823e+04 | 1.647200e+04 |   1.82%|  78.36%

SCIP Status        : problem is solved [optimal solution found]
Solving Time (sec) : 114.47
Solving Nodes      : 363
Primal Bound       : +1.64720000000000e+04 (436 solutions)
Dual Bound         : +1.64720000000000e+04
Gap                : 0.00 %
Solve Status: optimal
Solve Time: 114.48 seconds
Objective Value: 16472.00
